
Gurobi 9.1.2 (linux64) logging started Thu Apr  7 16:50:01 2022

Changed value of parameter LogFile to /home/DAVIDSON/doflocco/Graph_Pebbling/results/lemke square/ls-bounds/v-(5,6)/ls_sym_v-(6, 5).log
   Prev:   Default: 
Changed value of parameter MIPFocus to 1
   Prev: 0  Min: 0  Max: 3  Default: 0
Changed value of parameter TimeLimit to 10800.0
   Prev: inf  Min: 0.0  Max: inf  Default: inf
Warning: variable name "X[(1, 1),(1, 3)]" has a space
Warning: constraint name "flow-constr-t0-v(6, 5)" has a space
Warning: to let Gurobi read it back, use rlp format
Gurobi Optimizer version 9.1.2 build v9.1.2rc0 (linux64)
Thread count: 32 physical cores, 64 logical processors, using up to 32 threads
Optimize a model with 4839 rows, 4352 columns and 16576 nonzeros
Model fingerprint: 0x3e77d4ce
Variable types: 512 continuous, 3840 integer (3840 binary)
Coefficient statistics:
  Matrix range     [1e+00, 7e+04]
  Objective range  [1e-01, 1e-01]
  Bounds range     [1e+00, 3e+04]
  RHS range        [1e+00, 7e+04]
Presolve removed 387 rows and 400 columns
Presolve time: 0.12s
Presolved: 4452 rows, 3952 columns, 22579 nonzeros
Variable types: 512 continuous, 3440 integer (3440 binary)

Root relaxation: objective 6.400000e+01, 152 iterations, 0.01 seconds

    Nodes    |    Current Node    |     Objective Bounds      |     Work
 Expl Unexpl |  Obj  Depth IntInf | Incumbent    BestBd   Gap | It/Node Time

     0     0   64.00000    0   48          -   64.00000      -     -    0s
     0     0   64.00000    0   67          -   64.00000      -     -    0s
     0     0   64.00000    0   72          -   64.00000      -     -    0s
H    0     0                    1767.3749999   64.00000  96.4%     -    0s
     0     0   64.00000    0   43 1767.37500   64.00000  96.4%     -    0s
H    0     0                    1763.6249999   64.00000  96.4%     -    0s
H    0     0                    1169.8750000   64.00000  94.5%     -    0s
H    0     0                    1169.6250000   64.00000  94.5%     -    0s
     0     0   64.00000    0   47 1169.62500   64.00000  94.5%     -    0s
H    0     0                     394.7500000   64.00000  83.8%     -    0s
H    0     0                     346.1250000   64.00000  81.5%     -    0s
     0     0   64.00000    0   34  346.12500   64.00000  81.5%     -    0s
H    0     0                     134.6875000   64.00000  52.5%     -    0s
H    0     0                     116.2500000   64.00000  44.9%     -    1s
H    0     0                     113.5937500   64.00000  43.7%     -    1s
H    0     0                     113.4687500   64.00000  43.6%     -    1s
     0     0   64.00000    0   48  113.46875   64.00000  43.6%     -    1s
     0     0   64.00000    0   35  113.46875   64.00000  43.6%     -    1s
H    0     0                     106.7500000   64.00000  40.0%     -    1s
     0     0   64.00000    0   58  106.75000   64.00000  40.0%     -    1s
     0     0   64.00000    0   32  106.75000   64.00000  40.0%     -    1s
H    0     0                      94.3750000   64.00000  32.2%     -    1s
H    0     0                      90.6250000   64.00000  29.4%     -    1s
     0     2   64.00000    0   32   90.62500   64.00000  29.4%     -    1s
H    1     4                      89.5000000   64.00000  28.5%   375    1s
H   31    64                      89.2500000   64.00000  28.3%  31.0    2s

Cutting planes:
  Learned: 2
  Cover: 24
  Implied bound: 39
  Clique: 6
  MIR: 9
  Flow cover: 34
  Relax-and-lift: 5

Explored 127 nodes (9213 simplex iterations) in 2.69 seconds
Thread count was 32 (of 64 available processors)

Solution count 10: 89.25 89.5 90.625 ... 346.125

Solve interrupted
Best objective 8.924999999997e+01, best bound 6.400000000000e+01, gap 28.2913%
